Resources = {R1, R2, R3, R4, R5, R6, R7, R8, R9, R10};

Activities = {T, S, W, o, b};

slots = 144;

fixed =
[| R1: None, None, None, None, None, None, None, A(o), A(o), A(o), A(o), A(o), A(o), A(o), <>, <>, <>, <>, <>, A(o), <>, <>, <>, <>, <>, <>, <>, <>, <>, <>, <>, A(b), <>, <>, <>, <>, <>, <>, <>, <>, <>, <>, <>, <>, <>, <>, <>, <>, <>, <>, <>, <>, <>, <>, <>, A(b), A(b), A(b), A(b), A(b), A(b), A(b), A(b), <>, <>, <>, <>, <>, <>, <>, <>, <>, <>, <>, <>, <>, <>, <>, <>, <>, <>, <>, <>, <>, <>, <>, None, None, None, None, None, None, None, None, None, None, None, None, None, None, None, None, None, None, None, None, None, None, None, None, None, None, None, None, None, None, None, None, None, None, None, None, None, None, None, None, None, None, None, None, None, None, None, None, None, None, None, None, None, None, None, None, None, None
| R2: None, None, None, None, None, None, None, None, None, None, None, A(o), A(o), A(o), A(o), A(o), A(o), A(o), A(o), A(o), <>, <>, <>, <>, <>, <>, <>, <>, <>, <>, <>, <>, <>, <>, <>, A(b), <>, <>, <>, <>, <>, <>, <>, <>, <>, <>, <>, <>, <>, <>, <>, <>, <>, <>, <>, <>, <>, <>, <>, A(b), A(b), A(b), A(b), A(b), A(b), <>, <>, <>, <>, <>, <>, <>, <>, <>, <>, <>, <>, <>, <>, <>, <>, <>, <>, <>, <>, <>, <>, <>, <>, <>, <>, <>, <>, <>, <>, <>, <>, <>, <>, <>, <>, <>, <>, <>, <>, <>, <>, <>, <>, <>, <>, <>, <>, <>, <>, <>, <>, <>, <>, <>, <>, <>, <>, <>, <>, <>, <>, <>, <>, <>, None, None, None, None, None, None, None, None, None, None, None, None, None, None
| R3: None, None, None, None, None, None, None, None, None, None, None, None, None, None, None, None, None, None, None, None, None, None, None, None, None, None, None, None, None, None, None, None, None, None, None, None, <>, <>, <>, <>, <>, <>, <>, <>, <>, <>, <>, <>, <>, <>, <>, <>, <>, <>, <>, <>, <>, <>, <>, <>, <>, <>, <>, <>, <>, <>, <>, <>, <>, <>, <>, <>, <>, <>, <>, <>, <>, <>, <>, <>, <>, <>, <>, <>, A(b), A(b), A(b), A(b), A(b), A(b), A(b), A(b), A(b), A(b), A(b), <>, <>, <>, <>, <>, <>, <>, <>, <>, <>, <>, <>, <>, <>, <>, <>, <>, <>, <>, <>, <>, <>, <>, <>, <>, None, None, None, None, None, None, None, None, None, None, None, None, None, None, None, None, None, None, None, None, None, None, None, None
| R4: None, None, <>, <>, <>, <>, <>, <>, <>, <>, <>, <>, <>, <>, <>, <>, <>, <>, <>, A(o), <>, <>, <>, <>, <>, <>, A(b), <>, <>, <>, <>, <>, <>, <>, <>, <>, <>, <>, <>, <>, <>, <>, <>, <>, <>, <>, <>, <>, <>, <>, A(b), A(b), A(b), A(b), A(b), A(b), A(b), A(b), A(b), A(b), A(b), A(b), <>, <>, <>, <>, <>, <>, <>, <>, <>, <>, <>, <>, A(b), <>, <>, <>, <>, <>, <>, <>, <>, <>, <>, <>, <>, <>, <>, <>, <>, <>, <>, <>, <>, <>, <>, <>, <>, <>, <>, <>, <>, <>, <>, <>, <>, <>, <>, <>, <>, <>, <>, <>, <>, <>, <>, <>, <>, <>, <>, <>, <>, <>, <>, <>, <>, <>, <>, <>, <>, <>, <>, <>, None, None, None, None, None, None, None, None, None, None
| R5: None, None, None, None, None, None, None, None, None, None, None, None, None, None, None, None, None, None, None, None, None, None, None, None, None, None, None, None, None, None, None, None, None, None, None, None, None, None, None, None, None, None, None, None, None, <>, <>, <>, <>, <>, <>, <>, <>, <>, <>, <>, <>, <>, <>, <>, <>, <>, <>, <>, <>, <>, <>, <>, <>, <>, <>, <>, <>, <>, <>, <>, <>, <>, <>, <>, <>, A(b), A(b), A(b), A(b), A(b), A(b), A(b), <>, <>, <>, <>, <>, <>, <>, <>, <>, <>, <>, <>, <>, <>, <>, <>, <>, <>, <>, <>, <>, None, None, None, None, None, None, None, None, None, None, None, None, None, None, None, None, None, None, None, None, None, None, None, None, None, None, None, None, None, None, None, None, None, None, None
| R6: None, None, None, None, None, None, None, None, None, None, None, None, None, None, None, None, None, None, None, None, None, None, None, None, None, None, None, None, None, None, None, None, None, None, None, None, None, None, None, None, None, None, None, None, None, None, <>, <>, <>, <>, <>, <>, <>, <>, <>, <>, <>, <>, <>, <>, <>, <>, <>, <>, <>, <>, <>, <>, <>, <>, A(b), A(o), A(o), A(o), A(o), A(o), A(o), A(o), A(o), <>, <>, <>, <>, <>, <>, <>, <>, <>, <>, <>, <>, <>, <>, <>, A(b), A(b), A(b), A(b), A(b), A(b), A(b), A(b), A(b), <>, <>, <>, <>, <>, <>, <>, <>, <>, <>, <>, <>, <>, <>, <>, <>, <>, None, None, None, None, None, None, None, None, None, None, None, None, None, None, None, None, None, None, None, None, None, None, None, None
| R7: None, None, None, None, None, None, None, None, None, None, <>, <>, <>, <>, <>, <>, <>, <>, <>, A(o), <>, <>, <>, <>, <>, <>, <>, <>, <>, <>, <>, <>, <>, <>, <>, <>, <>, <>, <>, <>, <>, <>, <>, <>, <>, <>, <>, <>, <>, <>, <>, <>, <>, <>, <>, <>, <>, <>, A(b), A(b), A(b), A(b), A(b), A(b), A(b), A(b), A(b), <>, <>, <>, <>, <>, <>, <>, <>, <>, <>, <>, <>, <>, <>, <>, <>, <>, <>, <>, <>, <>, None, None, None, None, None, None, None, None, None, None, None, None, None, None, None, None, None, None, None, None, None, None, None, None, None, None, None, None, None, None, None, None, None, None, None, None, None, None, None, None, None, None, None, None, None, None, None, None, None, None, None, None, None, None, None, None
| R8: None, None, None, None, None, None, None, None, None, None, None, None, None, None, None, None, None, None, None, None, None, None, None, None, A(o), A(o), A(o), A(o), A(o), A(o), A(o), A(o), A(o), A(o), A(o), A(o), <>, <>, <>, <>, <>, <>, <>, <>, <>, <>, <>, <>, A(b), <>, <>, <>, <>, <>, <>, <>, <>, <>, <>, <>, <>, <>, <>, <>, <>, <>, <>, <>, <>, <>, <>, <>, A(b), A(b), A(b), A(b), A(b), A(b), A(b), A(b), A(b), A(b), A(b), A(b), <>, <>, <>, <>, <>, <>, <>, <>, <>, <>, <>, <>, <>, <>, <>, <>, <>, <>, <>, <>, <>, <>, <>, <>, <>, <>, <>, <>, <>, <>, <>, <>, <>, <>, <>, <>, <>, <>, <>, <>, <>, <>, <>, <>, <>, <>, <>, <>, <>, None, None, None, None, None, None, None, None, None, None, None
| R9: None, None, None, None, None, None, None, None, None, None, None, None, <>, <>, <>, <>, <>, <>, <>, A(o), <>, <>, <>, <>, <>, <>, <>, <>, <>, <>, <>, <>, <>, <>, <>, <>, <>, <>, <>, <>, <>, <>, <>, <>, <>, <>, <>, <>, <>, <>, <>, <>, <>, <>, <>, <>, <>, <>, <>, <>, A(b), A(b), A(b), A(b), A(b), A(b), A(b), A(b), A(b), A(b), A(b), A(b), <>, <>, <>, <>, <>, <>, <>, <>, <>, <>, <>, A(o), A(o), A(o), A(o), A(o), A(o), A(o), A(o), A(o), A(o), A(o), A(o), A(o), A(o), A(o), A(o), A(o), A(o), A(o), None, None, None, None, None, None, None, None, None, None, None, None, None, None, None, None, None, None, None, None, None, None, None, None, None, None, None, None, None, None, None, None, None, None, None, None, None, None, None, None, None, None
| R10: None, None, None, None, None, None, None, None, None, None, None, None, None, A(o), A(o), A(o), A(o), A(o), A(o), A(o), A(o), A(o), A(o), A(o), A(o), A(o), A(o), A(o), A(o), A(o), A(o), A(o), A(o), A(o), A(o), A(o), A(o), A(b), A(o), A(o), A(o), A(o), A(o), A(o), A(o), A(o), A(o), A(o), A(o), A(o), A(o), A(o), A(o), A(o), A(o), A(o), A(o), A(o), A(o), A(o), A(o), A(b), A(b), A(b), A(b), A(b), A(b), A(b), A(b), A(b), A(b), A(o), A(o), A(o), A(o), A(o), A(o), A(o), A(o), A(o), A(o), A(o), A(o), A(o), A(o), A(b), A(o), A(o), A(o), A(o), A(o), A(o), A(o), A(o), A(o), A(o), A(o), A(o), A(o), A(o), A(o), A(o), A(o), A(o), A(o), A(o), A(o), A(o), A(o), A(o), A(o), A(o), A(o), A(o), A(o), A(o), A(o), A(o), A(o), A(o), A(o), A(o), A(o), A(o), A(o), A(o), A(o), A(o), A(o), A(o), A(o), A(o), A(o), A(o), A(o), A(o), A(o), A(o), A(o), A(o), A(o), A(o), A(o), None
|];

requirements =
[| T: 0, 0, 0, 0, 0, 0, 0, 0, 0, 0, 0, 0, 0, 0, 0, 0, 0, 0, 0, 0, 3, 3, 3, 2, 2, 2, 2, 2, 2, 2, 2, 1, 2, 2, 2, 1, 3, 3, 3, 3, 3, 3, 3, 3, 3, 3, 3, 3, 3, 3, 3, 3, 3, 3, 3, 2, 2, 2, 2, 1, 1, 1, 1, 2, 2, 3, 3, 3, 3, 3, 3, 3, 3, 3, 3, 3, 3, 3, 3, 3, 3, 3, 3, 3, 2, 2, 1, 1, 1, 1, 1, 1, 1, 1, 1, 2, 2, 2, 2, 2, 2, 2, 2, 2, 2, 2, 2, 2, 2, 2, 2, 2, 2, 2, 2, 2, 2, 2, 2, 2, 1, 1, 1, 1, 1, 1, 1, 1, 1, 1, 1, 1, 1, 1, 0, 0, 0, 0, 0, 0, 0, 0, 0, 0
| S: 0, 0, 0, 0, 0, 0, 0, 0, 0, 0, 0, 0, 0, 0, 0, 0, 0, 0, 0, 0, 1, 1, 1, 1, 1, 1, 1, 1, 1, 1, 1, 1, 1, 1, 1, 1, 1, 1, 1, 1, 1, 1, 1, 1, 1, 2, 3, 3, 3, 3, 2, 2, 2, 1, 1, 1, 1, 1, 1, 1, 1, 1, 2, 2, 2, 2, 2, 2, 2, 2, 2, 2, 2, 2, 1, 2, 2, 2, 2, 2, 2, 1, 1, 1, 1, 1, 1, 1, 2, 2, 2, 2, 2, 2, 2, 2, 2, 2, 2, 2, 2, 2, 2, 2, 2, 2, 2, 2, 2, 1, 1, 1, 1, 1, 1, 1, 1, 1, 1, 1, 1, 1, 1, 1, 1, 1, 1, 1, 1, 1, 1, 1, 1, 0, 0, 0, 0, 0, 0, 0, 0, 0, 0, 0
| W: 0, 0, 1, 1, 1, 1, 1, 1, 1, 1, 2, 2, 3, 3, 4, 4, 4, 4, 4, 0, 1, 1, 1, 2, 2, 2, 1, 2, 2, 2, 2, 2, 2, 2, 2, 2, 3, 3, 3, 3, 3, 3, 3, 3, 3, 3, 3, 3, 2, 3, 3, 3, 3, 4, 4, 4, 4, 4, 3, 3, 2, 2, 2, 2, 2, 2, 2, 3, 3, 3, 2, 2, 2, 2, 2, 2, 2, 2, 2, 3, 3, 3, 3, 2, 3, 3, 3, 3, 2, 2, 2, 2, 2, 2, 1, 1, 1, 1, 1, 1, 1, 1, 1, 2, 2, 2, 2, 2, 2, 2, 2, 2, 2, 2, 2, 2, 2, 2, 2, 2, 1, 1, 1, 1, 1, 1, 1, 1, 1, 1, 0, 0, 0, 0, 0, 0, 0, 0, 0, 0, 0, 0, 0, 0
| o: 0, 0, 0, 0, 0, 0, 0, 1, 1, 1, 1, 2, 2, 3, 2, 2, 2, 2, 2, 6, 1, 1, 1, 1, 2, 2, 2, 2, 2, 2, 2, 2, 2, 2, 2, 2, 1, 0, 1, 1, 1, 1, 1, 1, 1, 1, 1, 1, 1, 1, 1, 1, 1, 1, 1, 1, 1, 1, 1, 1, 1, 0, 0, 0, 0, 0, 0, 0, 0, 0, 0, 2, 2, 2, 2, 2, 2, 2, 2, 1, 1, 1, 1, 2, 2, 1, 2, 2, 2, 2, 2, 2, 2, 2, 2, 2, 2, 2, 2, 2, 2, 2, 1, 1, 1, 1, 1, 1, 1, 1, 1, 1, 1, 1, 1, 1, 1, 1, 1, 1, 1, 1, 1, 1, 1, 1, 1, 1, 1, 1, 1, 1, 1, 1, 1, 1, 1, 1, 1, 1, 1, 1, 1, 0
| b: 0, 0, 0, 0, 0, 0, 0, 0, 0, 0, 0, 0, 0, 0, 0, 0, 0, 0, 0, 0, 0, 0, 0, 0, 0, 0, 1, 0, 0, 0, 0, 1, 0, 0, 0, 1, 0, 1, 0, 0, 0, 0, 0, 0, 0, 0, 0, 0, 1, 0, 1, 1, 1, 1, 1, 2, 2, 2, 3, 4, 5, 6, 5, 4, 4, 3, 3, 2, 2, 2, 3, 1, 1, 1, 2, 1, 1, 1, 1, 1, 1, 2, 2, 2, 2, 3, 2, 2, 1, 1, 1, 1, 1, 1, 2, 1, 1, 1, 1, 1, 1, 1, 1, 0, 0, 0, 0, 0, 0, 0, 0, 0, 0, 0, 0, 0, 0, 0, 0, 0, 0, 0, 0, 0, 0, 0, 0, 0, 0, 0, 0, 0, 0, 0, 0, 0, 0, 0, 0, 0, 0, 0, 0, 0
|];

activity_run_cost = array2d(Activities, SlotsAndZero,
[| T: 0, 300, 200, 100, 8, 6, 4, 2, 0, 0, 0, 0, 0, 0, 0, 0, 0, 0, 0, 100, 200, 300, 400, 500, 600, 700, 800, 900, 1000, 1100, 1200, 1300, 1400, 1500, 1600, 1700, 1800, 1900, 2000, 2100, 2200, 2300, 2400, 2500, 2600, 2700, 2800, 2900, 3000, 3100, 3200, 3300, 3400, 3500, 3600, 3700, 3800, 3900, 4000, 4100, 4200, 4300, 4400, 4500, 4600, 4700, 4800, 4900, 5000, 5100, 5200, 5300, 5400, 5400, 5400, 5400, 5400, 5400, 5400, 5400, 5400, 5400, 5400, 5400, 5400, 5400, 5400, 5400, 5400, 5400, 5400, 5400, 5400, 5400, 5400, 5400, 5400, 5400, 5400, 5400, 5400, 5400, 5400, 5400, 5400, 5400, 5400, 5400, 5400, 5400, 5400, 5400, 5400, 5400, 5400, 5400, 5400, 5400, 5400, 5400, 5400, 5400, 5400, 5400, 5400, 5400, 5400, 5400, 5400, 5400, 5400, 5400, 5400, 5400, 5400, 5400, 5400, 5400, 5400, 5400, 5400, 5400, 5400, 5400, 5400
| S: 0, 6, 4, 2, 0, 0, 0, 0, 0, 0, 0, 0, 0, 0, 0, 0, 0, 0, 0, 0, 0, 0, 0, 0, 0, 0, 0, 3, 6, 9, 12, 15, 18, 21, 24, 27, 30, 33, 36, 39, 42, 45, 48, 51, 54, 57, 60, 63, 66, 69, 72, 75, 78, 81, 84, 87, 90, 93, 96, 99, 102, 105, 108, 111, 114, 117, 120, 123, 126, 129, 132, 135, 138, 138, 138, 138, 138, 138, 138, 138, 138, 138, 138, 138, 138, 138, 138, 138, 138, 138, 138, 138, 138, 138, 138, 138, 138, 138, 138, 138, 138, 138, 138, 138, 138, 138, 138, 138, 138, 138, 138, 138, 138, 138, 138, 138, 138, 138, 138, 138, 138, 138, 138, 138, 138, 138, 138, 138, 138, 138, 138, 138, 138, 138, 138, 138, 138, 138, 138, 138, 138, 138, 138, 138, 138
| W: 0, 70, 65, 60, 55, 50, 45, 40, 35, 30, 25, 20, 15, 10, 5, 0, 0, 0, 0, 0, 0, 0, 0, 0, 0, 0, 0, 0, 0, 0, 0, 0, 0, 0, 0, 0, 0, 0, 0, 0, 0, 0, 0, 0, 0, 0, 0, 0, 0, 0, 0, 0, 0, 0, 0, 0, 0, 0, 0, 0, 0, 0, 0, 0, 0, 0, 0, 0, 0, 0, 0, 0, 0, 0, 0, 0, 0, 0, 0, 0, 0, 0, 0, 0, 0, 0, 0, 0, 0, 0, 0, 0, 0, 0, 0, 0, 0, 0, 0, 0, 0, 0, 0, 0, 0, 0, 0, 0, 0, 0, 0, 0, 0, 0, 0, 0, 0, 0, 0, 0, 0, 0, 0, 0, 0, 0, 0, 0, 0, 0, 0, 0, 0, 0, 0, 0, 0, 0, 0, 0, 0, 0, 0, 0, 0
| o: 0, 0, 0, 0, 0, 0, 0, 0, 0, 0, 0, 0, 0, 0, 0, 0, 0, 0, 0, 0, 0, 0, 0, 0, 0, 0, 0, 0, 0, 0, 0, 0, 0, 0, 0, 0, 0, 0, 0, 0, 0, 0, 0, 0, 0, 0, 0, 0, 0, 0, 0, 0, 0, 0, 0, 0, 0, 0, 0, 0, 0, 0, 0, 0, 0, 0, 0, 0, 0, 0, 0, 0, 0, 0, 0, 0, 0, 0, 0, 0, 0, 0, 0, 0, 0, 0, 0, 0, 0, 0, 0, 0, 0, 0, 0, 0, 0, 0, 0, 0, 0, 0, 0, 0, 0, 0, 0, 0, 0, 0, 0, 0, 0, 0, 0, 0, 0, 0, 0, 0, 0, 0, 0, 0, 0, 0, 0, 0, 0, 0, 0, 0, 0, 0, 0, 0, 0, 0, 0, 0, 0, 0, 0, 0, 0
| b: 0, 0, 0, 0, 0, 0, 0, 0, 0, 0, 0, 0, 0, 0, 0, 0, 0, 0, 0, 0, 0, 0, 0, 0, 0, 0, 0, 0, 0, 0, 0, 0, 0, 0, 0, 0, 0, 0, 0, 0, 0, 0, 0, 0, 0, 0, 0, 0, 0, 0, 0, 0, 0, 0, 0, 0, 0, 0, 0, 0, 0, 0, 0, 0, 0, 0, 0, 0, 0, 0, 0, 0, 0, 0, 0, 0, 0, 0, 0, 0, 0, 0, 0, 0, 0, 0, 0, 0, 0, 0, 0, 0, 0, 0, 0, 0, 0, 0, 0, 0, 0, 0, 0, 0, 0, 0, 0, 0, 0, 0, 0, 0, 0, 0, 0, 0, 0, 0, 0, 0, 0, 0, 0, 0, 0, 0, 0, 0, 0, 0, 0, 0, 0, 0, 0, 0, 0, 0, 0, 0, 0, 0, 0, 0, 0
|]);

activity_frequency_cost = array2d(Activities, SlotsAndZero,
[| T: 0, 118, 59, 0, 2, 4, 6, 8, 10, 12, 14, 16, 18, 20, 22, 24, 26, 28, 30, 32, 34, 36, 38, 40, 42, 44, 46, 48, 50, 52, 54, 56, 58, 60, 62, 64, 66, 68, 70, 72, 74, 76, 78, 80, 82, 84, 86, 88, 90, 92, 94, 96, 98, 100, 102, 104, 106, 108, 110, 112, 114, 116, 118, 120, 122, 124, 126, 128, 130, 132, 134, 136, 138, 138, 138, 138, 138, 138, 138, 138, 138, 138, 138, 138, 138, 138, 138, 138, 138, 138, 138, 138, 138, 138, 138, 138, 138, 138, 138, 138, 138, 138, 138, 138, 138, 138, 138, 138, 138, 138, 138, 138, 138, 138, 138, 138, 138, 138, 138, 138, 138, 138, 138, 138, 138, 138, 138, 138, 138, 138, 138, 138, 138, 138, 138, 138, 138, 138, 138, 138, 138, 138, 138, 138, 138
| S: 0, 0, 0, 0, 0, 0, 0, 0, 0, 0, 0, 0, 0, 0, 0, 0, 0, 0, 0, 0, 0, 0, 0, 0, 0, 0, 0, 0, 0, 0, 0, 0, 0, 0, 0, 0, 0, 0, 0, 0, 0, 0, 0, 0, 0, 0, 0, 0, 0, 0, 0, 0, 0, 0, 0, 0, 0, 0, 0, 0, 0, 0, 0, 0, 0, 0, 0, 0, 0, 0, 0, 0, 0, 0, 0, 0, 0, 0, 0, 0, 0, 0, 0, 0, 0, 0, 0, 0, 0, 0, 0, 0, 0, 0, 0, 0, 0, 0, 0, 0, 0, 0, 0, 0, 0, 0, 0, 0, 0, 0, 0, 0, 0, 0, 0, 0, 0, 0, 0, 0, 0, 0, 0, 0, 0, 0, 0, 0, 0, 0, 0, 0, 0, 0, 0, 0, 0, 0, 0, 0, 0, 0, 0, 0, 0
| W: 0, 4, 8, 12, 16, 20, 24, 28, 32, 36, 40, 44, 48, 52, 56, 60, 64, 68, 72, 76, 80, 84, 88, 92, 96, 100, 104, 108, 112, 116, 120, 124, 128, 132, 136, 140, 144, 148, 152, 156, 160, 164, 168, 172, 176, 180, 184, 188, 192, 196, 200, 204, 208, 212, 216, 220, 224, 228, 232, 236, 240, 244, 248, 252, 256, 260, 264, 268, 272, 276, 280, 284, 284, 284, 284, 284, 284, 284, 284, 284, 284, 284, 284, 284, 284, 284, 284, 284, 284, 284, 284, 284, 284, 284, 284, 284, 284, 284, 284, 284, 284, 284, 284, 284, 284, 284, 284, 284, 284, 284, 284, 284, 284, 284, 284, 284, 284, 284, 284, 284, 284, 284, 284, 284, 284, 284, 284, 284, 284, 284, 284, 284, 284, 284, 284, 284, 284, 284, 284, 284, 284, 284, 284, 284, 284
| o: 0, 0, 0, 0, 0, 0, 0, 0, 0, 0, 0, 0, 0, 0, 0, 0, 0, 0, 0, 0, 0, 0, 0, 0, 0, 0, 0, 0, 0, 0, 0, 0, 0, 0, 0, 0, 0, 0, 0, 0, 0, 0, 0, 0, 0, 0, 0, 0, 0, 0, 0, 0, 0, 0, 0, 0, 0, 0, 0, 0, 0, 0, 0, 0, 0, 0, 0, 0, 0, 0, 0, 0, 0, 0, 0, 0, 0, 0, 0, 0, 0, 0, 0, 0, 0, 0, 0, 0, 0, 0, 0, 0, 0, 0, 0, 0, 0, 0, 0, 0, 0, 0, 0, 0, 0, 0, 0, 0, 0, 0, 0, 0, 0, 0, 0, 0, 0, 0, 0, 0, 0, 0, 0, 0, 0, 0, 0, 0, 0, 0, 0, 0, 0, 0, 0, 0, 0, 0, 0, 0, 0, 0, 0, 0, 0
| b: 0, 0, 0, 0, 0, 0, 0, 0, 0, 0, 0, 0, 0, 0, 0, 0, 0, 0, 0, 0, 0, 0, 0, 0, 0, 0, 0, 0, 0, 0, 0, 0, 0, 0, 0, 0, 0, 0, 0, 0, 0, 0, 0, 0, 0, 0, 0, 0, 0, 0, 0, 0, 0, 0, 0, 0, 0, 0, 0, 0, 0, 0, 0, 0, 0, 0, 0, 0, 0, 0, 0, 0, 0, 0, 0, 0, 0, 0, 0, 0, 0, 0, 0, 0, 0, 0, 0, 0, 0, 0, 0, 0, 0, 0, 0, 0, 0, 0, 0, 0, 0, 0, 0, 0, 0, 0, 0, 0, 0, 0, 0, 0, 0, 0, 0, 0, 0, 0, 0, 0, 0, 0, 0, 0, 0, 0, 0, 0, 0, 0, 0, 0, 0, 0, 0, 0, 0, 0, 0, 0, 0, 0, 0, 0, 0
|]);

